p cnf 1154
-21 -357
-22 -360
-23 -363
-24 -366
-25 -369
-26 -372
-27 -375
-28 -378
-29 -381
-30 -384
-31 -387
-32 -390
-33 -393
-34 -396
-35 -399
-36 -402
-37 -405
-38 -408
-39 -411
-40 -414
-41 415
-42 416
-43 417
-44 418
-45 419
-46 -22
-46 -23
22 23 46
-47 -24
-47 -25
24 25 47
-48 -26
-48 -27
26 27 48
-49 -28
-49 -29
28 29 49
-50 -30
-50 -31
30 31 50
-51 -32
-51 -33
32 33 51
-52 -34
-52 -35
34 35 52
-53 -36
-53 -37
36 37 53
-54 -38
-54 -39
38 39 54
-55 -40
-55 -41
40 41 55
-56 -42
-56 -43
42 43 56
-57 -44
-57 -45
44 45 57
-58 46
-58 47
-46 -47 58
-59 48
-59 49
-48 -49 59
-60 50
-60 51
-50 -51 60
-61 52
-61 53
-52 -53 61
-62 54
-62 55
-54 -55 62
-63 56
-63 57
-56 -57 63
-64 58
-64 59
-58 -59 64
-65 60
-65 61
-60 -61 65
-66 62
-66 63
-62 -63 66
-67 64
-67 65
-64 -65 67
-68 66
-68 67
-66 -67 68
-69 -21
-69 22
21 -22 69
-70 21
-70 -22
-21 22 70
-71 -69
-71 -70
69 70 71
-72 21
-72 22
-21 -22 72
-73 -21
-73 -71
21 71 73
-74 21
-74 71
-21 -71 74
-75 -73
-75 -74
73 74 75
-76 21
-76 -71
-21 71 76
-77 -72
-77 -76
72 76 77
-78 -22
-78 23
22 -23 78
-79 22
-79 -23
-22 23 79
-80 -78
-80 -79
78 79 80
-81 22
-81 23
-22 -23 81
-82 77
-82 -80
-77 80 82
-83 -77
-83 80
77 -80 83
-84 -82
-84 -83
82 83 84
-85 -77
-85 -80
77 80 85
-86 -81
-86 -85
81 85 86
-87 -23
-87 24
23 -24 87
-88 23
-88 -24
-23 24 88
-89 -87
-89 -88
87 88 89
-90 23
-90 24
-23 -24 90
-91 86
-91 -89
-86 89 91
-92 -86
-92 89
86 -89 92
-93 -91
-93 -92
91 92 93
-94 -86
-94 -89
86 89 94
-95 -90
-95 -94
90 94 95
-96 -24
-96 25
24 -25 96
-97 24
-97 -25
-24 25 97
-98 -96
-98 -97
96 97 98
-99 24
-99 25
-24 -25 99
-100 95
-100 -98
-95 98 100
-101 -95
-101 98
95 -98 101
-102 -100
-102 -101
100 101 102
-103 -95
-103 -98
95 98 103
-104 -99
-104 -103
99 103 104
-105 -25
-105 26
25 -26 105
-106 25
-106 -26
-25 26 106
-107 -105
-107 -106
105 106 107
-108 25
-108 26
-25 -26 108
-109 104
-109 -107
-104 107 109
-110 -104
-110 107
104 -107 110
-111 -109
-111 -110
109 110 111
-112 -104
-112 -107
104 107 112
-113 -108
-113 -112
108 112 113
-114 -26
-114 27
26 -27 114
-115 26
-115 -27
-26 27 115
-116 -114
-116 -115
114 115 116
-117 26
-117 27
-26 -27 117
-118 113
-118 -116
-113 116 118
-119 -113
-119 116
113 -116 119
-120 -118
-120 -119
118 119 120
-121 -113
-121 -116
113 116 121
-122 -117
-122 -121
117 121 122
-123 -27
-123 28
27 -28 123
-124 27
-124 -28
-27 28 124
-125 -123
-125 -124
123 124 125
-126 27
-126 28
-27 -28 126
-127 122
-127 -125
-122 125 127
-128 -122
-128 125
122 -125 128
-129 -127
-129 -128
127 128 129
-130 -122
-130 -125
122 125 130
-131 -126
-131 -130
126 130 131
-132 -28
-132 29
28 -29 132
-133 28
-133 -29
-28 29 133
-134 -132
-134 -133
132 133 134
-135 28
-135 29
-28 -29 135
-136 131
-136 -134
-131 134 136
-137 -131
-137 134
131 -134 137
-138 -136
-138 -137
136 137 138
-139 -131
-139 -134
131 134 139
-140 -135
-140 -139
135 139 140
-141 -29
-141 30
29 -30 141
-142 29
-142 -30
-29 30 142
-143 -141
-143 -142
141 142 143
-144 29
-144 30
-29 -30 144
-145 140
-145 -143
-140 143 145
-146 -140
-146 143
140 -143 146
-147 -145
-147 -146
145 146 147
-148 -140
-148 -143
140 143 148
-149 -144
-149 -148
144 148 149
-150 -30
-150 31
30 -31 150
-151 30
-151 -31
-30 31 151
-152 -150
-152 -151
150 151 152
-153 30
-153 31
-30 -31 153
-154 149
-154 -152
-149 152 154
-155 -149
-155 152
149 -152 155
-156 -154
-156 -155
154 155 156
-157 -149
-157 -152
149 152 157
-158 -153
-158 -157
153 157 158
-159 -31
-159 32
31 -32 159
-160 31
-160 -32
-31 32 160
-161 -159
-161 -160
159 160 161
-162 31
-162 32
-31 -32 162
-163 158
-163 -161
-158 161 163
-164 -158
-164 161
158 -161 164
-165 -163
-165 -164
163 164 165
-166 -158
-166 -161
158 161 166
-167 -162
-167 -166
162 166 167
-168 -32
-168 33
32 -33 168
-169 32
-169 -33
-32 33 169
-170 -168
-170 -169
168 169 170
-171 32
-171 33
-32 -33 171
-172 167
-172 -170
-167 170 172
-173 -167
-173 170
167 -170 173
-174 -172
-174 -173
172 173 174
-175 -167
-175 -170
167 170 175
-176 -171
-176 -175
171 175 176
-177 -33
-177 34
33 -34 177
-178 33
-178 -34
-33 34 178
-179 -177
-179 -178
177 178 179
-180 33
-180 34
-33 -34 180
-181 176
-181 -179
-176 179 181
-182 -176
-182 179
176 -179 182
-183 -181
-183 -182
181 182 183
-184 -176
-184 -179
176 179 184
-185 -180
-185 -184
180 184 185
-186 -34
-186 35
34 -35 186
-187 34
-187 -35
-34 35 187
-188 -186
-188 -187
186 187 188
-189 34
-189 35
-34 -35 189
-190 185
-190 -188
-185 188 190
-191 -185
-191 188
185 -188 191
-192 -190
-192 -191
190 191 192
-193 -185
-193 -188
185 188 193
-194 -189
-194 -193
189 193 194
-195 -35
-195 36
35 -36 195
-196 35
-196 -36
-35 36 196
-197 -195
-197 -196
195 196 197
-198 35
-198 36
-35 -36 198
-199 194
-199 -197
-194 197 199
-200 -194
-200 197
194 -197 200
-201 -199
-201 -200
199 200 201
-202 -194
-202 -197
194 197 202
-203 -198
-203 -202
198 202 203
-204 -36
-204 37
36 -37 204
-205 36
-205 -37
-36 37 205
-206 -204
-206 -205
204 205 206
-207 36
-207 37
-36 -37 207
-208 203
-208 -206
-203 206 208
-209 -203
-209 206
203 -206 209
-210 -208
-210 -209
208 209 210
-211 -203
-211 -206
203 206 211
-212 -207
-212 -211
207 211 212
-213 -37
-213 38
37 -38 213
-214 37
-214 -38
-37 38 214
-215 -213
-215 -214
213 214 215
-216 37
-216 38
-37 -38 216
-217 212
-217 -215
-212 215 217
-218 -212
-218 215
212 -215 218
-219 -217
-219 -218
217 218 219
-220 -212
-220 -215
212 215 220
-221 -216
-221 -220
216 220 221
-222 -38
-222 39
38 -39 222
-223 38
-223 -39
-38 39 223
-224 -222
-224 -223
222 223 224
-225 38
-225 39
-38 -39 225
-226 221
-226 -224
-221 224 226
-227 -221
-227 224
221 -224 227
-228 -226
-228 -227
226 227 228
-229 -221
-229 -224
221 224 229
-230 -225
-230 -229
225 229 230
-231 -39
-231 40
39 -40 231
-232 39
-232 -40
-39 40 232
-233 -231
-233 -232
231 232 233
-234 39
-234 40
-39 -40 234
-235 230
-235 -233
-230 233 235
-236 -230
-236 233
230 -233 236
-237 -235
-237 -236
235 236 237
-238 -230
-238 -233
230 233 238
-239 -234
-239 -238
234 238 239
-240 -40
-240 41
40 -41 240
-241 40
-241 -41
-40 41 241
-242 -240
-242 -241
240 241 242
-243 40
-243 41
-40 -41 243
-244 239
-244 -242
-239 242 244
-245 -239
-245 242
239 -242 245
-246 -244
-246 -245
244 245 246
-247 -239
-247 -242
239 242 247
-248 -243
-248 -247
243 247 248
-249 -41
-249 42
41 -42 249
-250 41
-250 -42
-41 42 250
-251 -249
-251 -250
249 250 251
-252 41
-252 42
-41 -42 252
-253 248
-253 -251
-248 251 253
-254 -248
-254 251
248 -251 254
-255 -253
-255 -254
253 254 255
-256 -248
-256 -251
248 251 256
-257 -252
-257 -256
252 256 257
-258 -42
-258 43
42 -43 258
-259 42
-259 -43
-42 43 259
-260 -258
-260 -259
258 259 260
-261 42
-261 43
-42 -43 261
-262 257
-262 -260
-257 260 262
-263 -257
-263 260
257 -260 263
-264 -262
-264 -263
262 263 264
-265 -257
-265 -260
257 260 265
-266 -261
-266 -265
261 265 266
-267 -43
-267 44
43 -44 267
-268 43
-268 -44
-43 44 268
-269 -267
-269 -268
267 268 269
-270 43
-270 44
-43 -44 270
-271 266
-271 -269
-266 269 271
-272 -266
-272 269
266 -269 272
-273 -271
-273 -272
271 272 273
-274 -266
-274 -269
266 269 274
-275 -270
-275 -274
270 274 275
-276 -44
-276 45
44 -45 276
-277 44
-277 -45
-44 45 277
-278 -276
-278 -277
276 277 278
-279 44
-279 45
-44 -45 279
-280 275
-280 -278
-275 278 280
-281 -275
-281 278
275 -278 281
-282 -280
-282 -281
280 281 282
-283 -275
-283 -278
275 278 283
-284 -279
-284 -283
279 283 284
-285 21
-285 -75
-21 75 285
-286 -21
-286 23
21 -23 286
-287 -285
-287 -286
285 286 287
-288 21
-288 -84
-21 84 288
-289 -21
-289 24
21 -24 289
-290 -288
-290 -289
288 289 290
-291 21
-291 -93
-21 93 291
-292 -21
-292 25
21 -25 292
-293 -291
-293 -292
291 292 293
-294 21
-294 -102
-21 102 294
-295 -21
-295 26
21 -26 295
-296 -294
-296 -295
294 295 296
-297 21
-297 -111
-21 111 297
-298 -21
-298 27
21 -27 298
-299 -297
-299 -298
297 298 299
-300 21
-300 -120
-21 120 300
-301 -21
-301 28
21 -28 301
-302 -300
-302 -301
300 301 302
-303 21
-303 -129
-21 129 303
-304 -21
-304 29
21 -29 304
-305 -303
-305 -304
303 304 305
-306 21
-306 -138
-21 138 306
-307 -21
-307 30
21 -30 307
-308 -306
-308 -307
306 307 308
-309 21
-309 -147
-21 147 309
-310 -21
-310 31
21 -31 310
-311 -309
-311 -310
309 310 311
-312 21
-312 -156
-21 156 312
-313 -21
-313 32
21 -32 313
-314 -312
-314 -313
312 313 314
-315 21
-315 -165
-21 165 315
-316 -21
-316 33
21 -33 316
-317 -315
-317 -316
315 316 317
-318 21
-318 -174
-21 174 318
-319 -21
-319 34
21 -34 319
-320 -318
-320 -319
318 319 320
-321 21
-321 -183
-21 183 321
-322 -21
-322 35
21 -35 322
-323 -321
-323 -322
321 322 323
-324 21
-324 -192
-21 192 324
-325 -21
-325 36
21 -36 325
-326 -324
-326 -325
324 325 326
-327 21
-327 -201
-21 201 327
-328 -21
-328 37
21 -37 328
-329 -327
-329 -328
327 328 329
-330 21
-330 -210
-21 210 330
-331 -21
-331 38
21 -38 331
-332 -330
-332 -331
330 331 332
-333 21
-333 -219
-21 219 333
-334 -21
-334 39
21 -39 334
-335 -333
-335 -334
333 334 335
-336 21
-336 -228
-21 228 336
-337 -21
-337 40
21 -40 337
-338 -336
-338 -337
336 337 338
-339 21
-339 -237
-21 237 339
-340 -21
-340 41
21 -41 340
-341 -339
-341 -340
339 340 341
-342 21
-342 -246
-21 246 342
-343 -21
-343 42
21 -42 343
-344 -342
-344 -343
342 343 344
-345 21
-345 -255
-21 255 345
-346 -21
-346 43
21 -43 346
-347 -345
-347 -346
345 346 347
-348 21
-348 -264
-21 264 348
-349 -21
-349 44
21 -44 349
-350 -348
-350 -349
348 349 350
-351 21
-351 -273
-21 273 351
-352 -21
-352 45
21 -45 352
-353 -351
-353 -352
351 352 353
-354 21
-354 -282
-21 282 354
-355 1
-355 68
-1 -68 355
-356 -68
-356 69
68 -69 356
-357 -355
-357 -356
355 356 357
-358 2
-358 68
-2 -68 358
-359 -68
-359 -287
68 287 359
-360 -358
-360 -359
358 359 360
-361 3
-361 68
-3 -68 361
-362 -68
-362 -290
68 290 362
-363 -361
-363 -362
361 362 363
-364 4
-364 68
-4 -68 364
-365 -68
-365 -293
68 293 365
-366 -364
-366 -365
364 365 366
-367 5
-367 68
-5 -68 367
-368 -68
-368 -296
68 296 368
-369 -367
-369 -368
367 368 369
-370 6
-370 68
-6 -68 370
-371 -68
-371 -299
68 299 371
-372 -370
-372 -371
370 371 372
-373 7
-373 68
-7 -68 373
-374 -68
-374 -302
68 302 374
-375 -373
-375 -374
373 374 375
-376 8
-376 68
-8 -68 376
-377 -68
-377 -305
68 305 377
-378 -376
-378 -377
376 377 378
-379 9
-379 68
-9 -68 379
-380 -68
-380 -308
68 308 380
-381 -379
-381 -380
379 380 381
-382 10
-382 68
-10 -68 382
-383 -68
-383 -311
68 311 383
-384 -382
-384 -383
382 383 384
-385 11
-385 68
-11 -68 385
-386 -68
-386 -314
68 314 386
-387 -385
-387 -386
385 386 387
-388 12
-388 68
-12 -68 388
-389 -68
-389 -317
68 317 389
-390 -388
-390 -389
388 389 390
-391 13
-391 68
-13 -68 391
-392 -68
-392 -320
68 320 392
-393 -391
-393 -392
391 392 393
-394 14
-394 68
-14 -68 394
-395 -68
-395 -323
68 323 395
-396 -394
-396 -395
394 395 396
-397 15
-397 68
-15 -68 397
-398 -68
-398 -326
68 326 398
-399 -397
-399 -398
397 398 399
-400 16
-400 68
-16 -68 400
-401 -68
-401 -329
68 329 401
-402 -400
-402 -401
400 401 402
-403 17
-403 68
-17 -68 403
-404 -68
-404 -332
68 332 404
-405 -403
-405 -404
403 404 405
-406 18
-406 68
-18 -68 406
-407 -68
-407 -335
68 335 407
-408 -406
-408 -407
406 407 408
-409 19
-409 68
-19 -68 409
-410 -68
-410 -338
68 338 410
-411 -409
-411 -410
409 410 411
-412 20
-412 68
-20 -68 412
-413 -68
-413 -341
68 341 413
-414 -412
-414 -413
412 413 414
-415 -68
-415 -344
68 344 415
-416 -68
-416 -347
68 347 416
-417 -68
-417 -350
68 350 417
-418 -68
-418 -353
68 353 418
-419 -68
-419 354
68 -354 419
-420 -45
-420 284
45 -284 420
-421 21
-421 -420
-21 420 421
421
